Solver command line: ['C:\\Program Files\\IBM\\ILOG\\CPLEX_Studio2211\\cplex\\bin\\x64_win64\\cplex.exe']


Welcome to IBM(R) ILOG(R) CPLEX(R) Interactive Optimizer 22.1.1.0
  with Simplex, Mixed Integer & Barrier Optimizers
5725-A06 5725-A29 5724-Y48 5724-Y49 5724-Y54 5724-Y55 5655-Y21
Copyright IBM Corp. 1988, 2022.  All Rights Reserved.

Type 'help' for a list of available commands.
Type 'help' followed by a command name for more
information on commands.

CPLEX> Logfile 'cplex.log' closed.
Logfile 'C:\Users\wangy\Documents\GitHub\re_optimization\result_site_specific\tmpm5bxj5ga.cplex.log' open.
CPLEX> Problem 'C:\Users\wangy\Documents\GitHub\re_optimization\result_site_specific\tmph3cbshuc.pyomo.lp' read.
Read time = 0.19 sec. (6.21 ticks)
CPLEX> Problem name         : C:\Users\wangy\Documents\GitHub\re_optimization\result_site_specific\tmph3cbshuc.pyomo.lp
Objective sense      : Minimize
Variables            :   43845  [Nneg: 23381,  Free: 4400,  Binary: 4,
                                 Other: 16060]
Objective nonzeros   :      11
Linear constraints   :   64280  [Less: 35051,  Greater: 3,  Equal: 29226]
  Nonzeros           :  154915
  RHS nonzeros       :    4032

Variables            : Min LB: 0.000000         Max UB: 1.000000       
Objective nonzeros   : Min   : 1.000000         Max   : 1.000000       
Linear constraints   :
  Nonzeros           : Min   : 0.001304304      Max   : 100000.0       
  RHS nonzeros       : Min   : 0.002000000      Max   : 1000.000       
CPLEX> Version identifier: 22.1.1.0 | 2022-11-27 | 9160aff4d
Tried aggregator 3 times.
MIP Presolve eliminated 41399 rows and 22420 columns.
Aggregator did 7401 substitutions.
Reduced MIP has 15480 rows, 14024 columns, and 44687 nonzeros.
Reduced MIP has 2 binaries, 0 generals, 0 SOSs, and 0 indicators.
Presolve time = 0.11 sec. (135.37 ticks)
Found incumbent of value 162695.797139 after 0.14 sec. (157.24 ticks)
Probing time = 0.02 sec. (0.85 ticks)
Tried aggregator 1 time.
Detecting symmetries...
Reduced MIP has 15480 rows, 14024 columns, and 44687 nonzeros.
Reduced MIP has 2 binaries, 0 generals, 0 SOSs, and 0 indicators.
Presolve time = 0.02 sec. (26.59 ticks)
Probing time = 0.02 sec. (0.79 ticks)
MIP emphasis: balance optimality and feasibility.
MIP search method: dynamic search.
Parallel mode: deterministic, using up to 16 threads.
Root relaxation solution time = 0.38 sec. (374.11 ticks)

        Nodes                                         Cuts/
   Node  Left     Objective  IInf  Best Integer    Best Bound    ItCnt     Gap

*     0+    0                       162695.7971    -6541.3575           104.02%
*     0+    0                         4758.6062    -6541.3575           237.46%
      0     0     4754.7173     1     4758.6062     4754.7173       42    0.08%
*     0+    0                         4758.4917     4754.7173             0.08%
      0     0        cutoff           4758.4917                     49    0.00%
Elapsed time = 0.70 sec. (643.02 ticks, tree = 0.01 MB, solutions = 3)

Root node processing (before b&c):
  Real time             =    0.70 sec. (645.11 ticks)
Parallel b&c, 16 threads:
  Real time             =    0.00 sec. (0.00 ticks)
  Sync time (average)   =    0.00 sec.
  Wait time (average)   =    0.00 sec.
                          ------------
Total (root+branch&cut) =    0.70 sec. (645.11 ticks)

Solution pool: 3 solutions saved.

MIP - Integer optimal solution:  Objective =  4.7584917447e+03
Solution time =    0.72 sec.  Iterations = 49  Nodes = 0
Deterministic time = 645.24 ticks  (897.41 ticks/sec)

CPLEX> Incumbent solution written to file 'C:\Users\wangy\Documents\GitHub\re_optimization\result_site_specific\tmpfi56cxwr.cplex.sol'.
CPLEX> 
